
  21    0


   0  10 2 3 4 5 6 9 17 18 19 20 
   5   4 16 15 11 8 
   4   2 10 7 
   4   2 14 13 
  10   2 12 10 
   9   2 11 10 
   4   1 11 
   9   1 10 
   3   1 12 
   1   1 21
   6   1 21
   3   1 21
   8   1 21
   3   1 21
   9   1 21
   8   1 21
   6   1 21
   2   1 21
   9   1 21
   8   1 21
   0   0 
